language Essence 1.3

letting blksize_delta be
        function(1 --> 10, 2 --> 10, 3 --> 10, 4 --> 10, 5 --> 10, 6 --> 10, 7 --> 10, 8 --> 10, 9 --> 10, 10 --> 10,
                 11 --> 10, 12 --> 10, 13 --> 10, 14 --> 10, 15 --> 10, 16 --> 10, 17 --> 10, 18 --> 10, 19 --> 10,
                 20 --> 10, 21 --> 10, 22 --> 10, 23 --> 10, 24 --> 10, 25 --> 10, 26 --> 10, 27 --> 10, 28 --> 10,
                 29 --> 10, 30 --> 10, 31 --> 10)
letting maxcars be
        function(1 --> 9, 2 --> 9, 3 --> 9, 4 --> 9, 5 --> 10, 6 --> 9, 7 --> 9, 8 --> 9, 9 --> 9, 10 --> 9, 11 --> 9,
                 12 --> 9, 13 --> 9, 14 --> 9, 15 --> 9, 16 --> 9, 17 --> 9, 18 --> 10, 19 --> 9, 20 --> 9, 21 --> 10,
                 22 --> 9, 23 --> 9, 24 --> 9, 25 --> 10, 26 --> 9, 27 --> 9, 28 --> 9, 29 --> 9, 30 --> 9, 31 --> 9)
letting n_cars be 143
letting n_classes be 33
letting n_options be 31
letting quantity be
        function(1 --> 4, 2 --> 4, 3 --> 4, 4 --> 4, 5 --> 10, 6 --> 4, 7 --> 4, 8 --> 4, 9 --> 4, 10 --> 8, 11 --> 4,
                 12 --> 4, 13 --> 4, 14 --> 5, 15 --> 4, 16 --> 4, 17 --> 4, 18 --> 4, 19 --> 4, 20 --> 4, 21 --> 4,
                 22 --> 4, 23 --> 4, 24 --> 4, 25 --> 4, 26 --> 4, 27 --> 4, 28 --> 4, 29 --> 4, 30 --> 4, 31 --> 4,
                 32 --> 4, 33 --> 4)
letting usage be
        relation((1, 1), (1, 2), (1, 14), (1, 22), (1, 31), (2, 5), (2, 13), (2, 21), (2, 29), (3, 5), (3, 31), (4, 3),
                 (4, 10), (4, 12), (4, 31), (5, 18), (5, 20), (5, 22), (6, 5), (6, 16), (6, 30), (7, 1), (7, 11),
                 (8, 3), (8, 13), (8, 15), (8, 31), (9, 5), (9, 16), (9, 23), (10, 3), (10, 4), (10, 29), (10, 30),
                 (11, 1), (11, 26), (12, 12), (12, 14), (12, 18), (12, 25), (13, 31), (14, 5), (14, 12), (14, 28),
                 (15, 1), (15, 11), (15, 21), (15, 22), (15, 27), (16, 21), (16, 28), (16, 29), (17, 4), (17, 8),
                 (17, 16), (17, 25), (18, 5), (18, 28), (18, 31), (19, 14), (19, 16), (20, 1), (21, 13), (21, 15),
                 (21, 27), (21, 28), (22, 3), (22, 6), (22, 9), (22, 16), (22, 23), (22, 25), (22, 29), (23, 3),
                 (23, 14), (23, 16), (23, 29), (24, 6), (24, 10), (24, 11), (24, 15), (24, 26), (24, 28), (25, 1),
                 (25, 11), (25, 22), (26, 3), (26, 4), (26, 6), (26, 23), (27, 4), (27, 10), (27, 31), (28, 8), (28, 9),
                 (28, 24), (29, 4), (29, 12), (29, 27), (30, 6), (30, 14), (30, 20), (30, 25), (31, 2), (31, 4),
                 (31, 5), (31, 7), (31, 10), (31, 17), (31, 18), (31, 19), (31, 21), (31, 22), (31, 23), (32, 3),
                 (32, 13), (32, 18), (32, 28), (32, 30), (33, 1), (33, 9), (33, 13), (33, 20))
$ Visualisation for usage
$  1  1
$  1  2
$  1 14
$  1 22
$  1 31
$  2  5
$  2 13
$  2 21
$  2 29
$  3  5
$  3 31
$  4  3
$  4 10
$  4 12
$  4 31
$  5 18
$  5 20
$  5 22
$  6  5
$  6 16
$  6 30
$  7  1
$  7 11
$  8  3
$  8 13
$  8 15
$  8 31
$  9  5
$  9 16
$  9 23
$ 10  3
$ 10  4
$ 10 29
$ 10 30
$ 11  1
$ 11 26
$ 12 12
$ 12 14
$ 12 18
$ 12 25
$ 13 31
$ 14  5
$ 14 12
$ 14 28
$ 15  1
$ 15 11
$ 15 21
$ 15 22
$ 15 27
$ 16 21
$ 16 28
$ 16 29
$ 17  4
$ 17  8
$ 17 16
$ 17 25
$ 18  5
$ 18 28
$ 18 31
$ 19 14
$ 19 16
$ 20  1
$ 21 13
$ 21 15
$ 21 27
$ 21 28
$ 22  3
$ 22  6
$ 22  9
$ 22 16
$ 22 23
$ 22 25
$ 22 29
$ 23  3
$ 23 14
$ 23 16
$ 23 29
$ 24  6
$ 24 10
$ 24 11
$ 24 15
$ 24 26
$ 24 28
$ 25  1
$ 25 11
$ 25 22
$ 26  3
$ 26  4
$ 26  6
$ 26 23
$ 27  4
$ 27 10
$ 27 31
$ 28  8
$ 28  9
$ 28 24
$ 29  4
$ 29 12
$ 29 27
$ 30  6
$ 30 14
$ 30 20
$ 30 25
$ 31  2
$ 31  4
$ 31  5
$ 31  7
$ 31 10
$ 31 17
$ 31 18
$ 31 19
$ 31 21
$ 31 22
$ 31 23
$ 32  3
$ 32 13
$ 32 18
$ 32 28
$ 32 30
$ 33  1
$ 33  9
$ 33 13
$ 33 20

